
Gurobi 7.5.1 (linux64, Python) logging started Mon Nov  6 16:35:19 2017

Academic license - for non-commercial use only

Gurobi 7.5.1 (linux64, Python) logging started Tue Nov  7 14:12:29 2017

Academic license - for non-commercial use only

Gurobi 7.5.1 (linux64, Python) logging started Tue Nov  7 18:37:26 2017

Academic license - for non-commercial use only

Gurobi 7.5.1 (linux64, Python) logging started Wed Nov  8 13:48:58 2017

Academic license - for non-commercial use only

Gurobi 7.5.1 (linux64, Python) logging started Wed Nov  8 13:51:41 2017

Academic license - for non-commercial use only

Gurobi 7.5.1 (linux64, Python) logging started Wed Nov  8 23:37:02 2017

Academic license - for non-commercial use only

Gurobi 7.5.1 (linux64, Python) logging started Wed Nov  8 23:42:08 2017

Academic license - for non-commercial use only
